Route #1: 124 107 69 99 5 81 21 51
Route #2: 94 40 26 85 44 31 68
Route #3: 61 78 36 58 14 57 63
Route #4: 91 45 2 60 19 65 67
Route #5: 64 7 46 23 55 8 10 87
Route #6: 24 47 34 22 35 3 49 30 20
Route #7: 16 76 104 90 89
Route #8: 114 83 125 28 53
Route #9: 88 95 102 59 41 56 42 62 86 18 111
Route #10: 122 112 82 37 108 123
Route #11: 66 106 12 77 80 11 105 72 127
Route #12: 129 27 109 50 93 117 96 97 13 43 75
Route #13: 92 4
Route #14: 79 120 6 116 118 71 54
Route #15: 103 113 73 101 74 115 33
Route #16: 128 15 100 17 38 9 98
Route #17: 84 110 52 121 70 32 126
Route #18: 48 29 119 39 25
